# Solution for model Objective
# Objective value = 6
M 3
W1 0
W4 0
W9 0
W10 1
W11 0
W13 0
W15 0
W16 0
W18 0
W20 0
W24 0
W25 0
W27 0
W28 0
W29 0
W30 0
W31 0
W33 0
W37 0
W38 0
W40 0
W41 0
W42 0
W43 1
W44 1
W0 3
W2 1
W3 3
W5 0
W6 1
W7 3
W8 3
W12 3
W14 2
W17 1
W19 0
W21 3
W22 3
W23 3
W26 1
W32 0
W34 0
W35 0
W36 2
W39 0
d0_1 1
d0_2 0
d0_3 0
d0_4 0
d0_5 0
d0_6 0
d0_7 0
d0_8 0
d0_9 0
d0_0 0
d1_1 0
d1_2 0
d1_3 1
d1_4 0
d1_5 0
d1_6 0
d1_7 0
d1_8 0
d1_9 0
d1_0 0
d2_1 0
d2_2 1
d2_3 0
d2_4 0
d2_5 0
d2_6 0
d2_7 0
d2_8 0
d2_9 0
d2_0 0
d3_1 0
d3_2 1
d3_3 0
d3_4 0
d3_5 0
d3_6 0
d3_7 0
d3_8 0
d3_9 0
d3_0 0
d4_1 0
d4_2 0
d4_3 1
d4_4 0
d4_5 0
d4_6 0
d4_7 0
d4_8 0
d4_9 0
d4_0 0
d5_1 0
d5_2 0
d5_3 0
d5_4 1
d5_5 0
d5_6 0
d5_7 0
d5_8 0
d5_9 0
d5_0 0
